152
0 107 142 46 147 106 56 137 53 36 
28 96 78 34 71 134 114 8 132 109 
12 122 144 104 138 59 113 90 121 133 
141 89 40 16 39 24 101 54 25 63 
72 15 85 97 74 135 76 41 66 19 
118 95 126 68 7 43 55 88 9 115 
102 136 10 18 117 42 38 146 64 148 
94 27 93 58 120 119 70 47 123 5 
31 91 111 100 92 44 116 45 20 37 
98 2 79 129 124 14 103 3 51 11 
128 99 143 61 1 6 26 21 105 149 
108 75 23 69 86 131 145 110 139 127 
22 60 29 87 77 84 125 48 49 67 
112 4 80 150 17 151 13 140 35 30 
32 83 57 81 130 73 65 33 52 62 
82 50 
